5 5
1 37 4 9 0 61 3 35 2 47
0 21 2 17 1 55 3 88 4 95
3 6 1 35 4 50 0 37 2 13
3 25 1 96 2 1 0 49 4 35
4 83 0 53 1 52 3 54 2 76
-1
0 2 3 4 5
0 2 3 5
0 1 3 5
0 2 5
0 1 4 5
-2
53 121 223 241
44 142 302
6 116 194
180 235
91 373 499

374 8
5 21 2 13 18
0 7 11 22 16
6 4 17 14 24
10 15 8 3 23
20 1 12 9 19
